N = 9;
H = 6;
T = 2;

avail = array3d(1..N, 1..H, 1..T, [5, 1, 10, 9, 3, 4, 8, 3, 7, 4, 7, 6, 5, 2, 5, 0, 3, 2, 3, 1, 7, 5, 3, 10, 9, 8, 7, 0, 8, 4, 1, 8, 4, 10, 0, 0, 7, 4, 0, 0, 4, 6, 9, 1, 7, 9, 2, 6, 7, 7, 4, 1, 3, 8, 1, 1, 5, 4, 9, 10, 5, 10, 4, 0, 2, 0, 10, 6, 2, 5, 4, 10, 5, 8, 8, 0, 2, 4, 3, 3, 0, 1, 3, 0, 4, 0, 2, 7, 3, 10, 1, 8, 2, 5, 3, 10, 9, 3, 3, 9, 4, 6, 5, 3, 7, 6, 8, 9]);

r = array2d(1..H, 1..T, [4, 0, 2, 2, 4, 1, 0, 2, 0, 3, 3, 4]);
